
  22   10
  10   10   10   10   10   10   10   10   10   10

   0   0   0   0   0   0   0   0   0   0   0   1 2 
   3  10  10  10  10  10  10  10  10  10  10   1 3 
   3  10  10  10  10  10  10  10  10  10  10   1 4 
   7  10  10  10  10  10  10  10  10  10  10   3 8 6 5 
   4  10  10  10  10  10  10  10  10  10  10   2 13 7 
   5  10  10  10  10  10  10  10  10  10  10   1 7 
   3  10  10  10  10  10  10  10  10  10  10   2 12 9 
   4  10  10  10  10  10  10  10  10  10  10   2 13 10 
  10  10  10  10  10  10  10  10  10  10  10   1 10 
   9  10  10  10  10  10  10  10  10  10  10   1 11 
   8  10  10  10  10  10  10  10  10  10  10   1 14 
   5  10  10  10  10  10  10  10  10  10  10   1 14 
   9  10  10  10  10  10  10  10  10  10  10   1 14 
   8  10  10  10  10  10  10  10  10  10  10   2 16 15 
   3  10  10  10  10  10  10  10  10  10  10   2 20 17 
   5  10  10  10  10  10  10  10  10  10  10   2 20 17 
   6  10  10  10  10  10  10  10  10  10  10   1 18 
   5  10  10  10  10  10  10  10  10  10  10   1 19 
   1  10  10  10  10  10  10  10  10  10  10   1 21 
   2  10  10  10  10  10  10  10  10  10  10   1 21 
   3  10  10  10  10  10  10  10  10  10  10   1 22
   0   0   0   0   0   0   0   0   0   0   0   0 
